nNurses = 102;
nHours = 40;
minHours = 9;
maxHours = 17;
maxConsec = 9;
maxPresence = 35;
demand = [6, 7, 12, 15, 10, 12, 16, 16, 14, 15, 10, 13, 8, 10, 9, 14, 11, 10, 12, 10, 12, 15, 15, 16, 14, 12, 16, 21, 17, 19, 18, 20, 15, 13, 17, 17, 22, 27, 30, 32];
